p cnf 386 460
16 -20 5 21 22 0
16 -20 5 21 -22 0
16 -20 5 -21 23 0
16 -20 5 -21 -23 0
5 -17 -19 24 25 0
5 -17 -19 24 -25 0
5 -17 -19 -24 26 0
5 -17 -19 -24 -26 0
-9 4 -15 27 28 0
-9 4 -15 27 -28 0
-9 4 -15 -27 29 0
-9 4 -15 -27 -29 0
19 12 1 30 31 0
19 12 1 30 -31 0
19 12 1 -30 32 0
19 12 1 -30 -32 0
-16 10 11 33 34 0
-16 10 11 33 -34 0
-16 10 11 -33 35 0
-16 10 11 -33 -35 0
7 -1 -12 36 37 0
7 -1 -12 36 -37 0
7 -1 -12 -36 38 0
7 -1 -12 -36 -38 0
-10 14 -17 39 40 0
-10 14 -17 39 -40 0
-10 14 -17 -39 41 0
-10 14 -17 -39 -41 0
-6 10 -18 42 43 0
-6 10 -18 42 -43 0
-6 10 -18 -42 44 0
-6 10 -18 -42 -44 0
7 6 -2 45 46 0
7 6 -2 45 -46 0
7 6 -2 -45 47 0
7 6 -2 -45 -47 0
18 17 15 48 49 0
18 17 15 48 -49 0
18 17 15 -48 50 0
18 17 15 -48 -50 0
2 11 -13 51 52 0
2 11 -13 51 -52 0
2 11 -13 -51 53 0
2 11 -13 -51 -53 0
-17 1 7 54 55 0
-17 1 7 54 -55 0
-17 1 7 -54 56 0
-17 1 7 -54 -56 0
-20 -17 -11 57 58 0
-20 -17 -11 57 -58 0
-20 -17 -11 -57 59 0
-20 -17 -11 -57 -59 0
-13 18 1 60 61 0
-13 18 1 60 -61 0
-13 18 1 -60 62 0
-13 18 1 -60 -62 0
10 3 4 63 64 0
10 3 4 63 -64 0
10 3 4 -63 65 0
10 3 4 -63 -65 0
-7 17 18 66 67 0
-7 17 18 66 -67 0
-7 17 18 -66 68 0
-7 17 18 -66 -68 0
11 -5 -14 69 70 0
11 -5 -14 69 -70 0
11 -5 -14 -69 71 0
11 -5 -14 -69 -71 0
-3 -8 7 72 73 0
-3 -8 7 72 -73 0
-3 -8 7 -72 74 0
-3 -8 7 -72 -74 0
12 16 4 75 76 0
12 16 4 75 -76 0
12 16 4 -75 77 0
12 16 4 -75 -77 0
-15 4 -13 78 79 0
-15 4 -13 78 -79 0
-15 4 -13 -78 80 0
-15 4 -13 -78 -80 0
4 15 -16 81 82 0
4 15 -16 81 -82 0
4 15 -16 -81 83 0
4 15 -16 -81 -83 0
8 18 -4 84 85 0
8 18 -4 84 -85 0
8 18 -4 -84 86 0
8 18 -4 -84 -86 0
17 5 3 87 88 0
17 5 3 87 -88 0
17 5 3 -87 89 0
17 5 3 -87 -89 0
6 16 -17 90 91 0
6 16 -17 90 -91 0
6 16 -17 -90 92 0
6 16 -17 -90 -92 0
-19 -15 2 93 94 0
-19 -15 2 93 -94 0
-19 -15 2 -93 95 0
-19 -15 2 -93 -95 0
11 -17 -4 96 97 0
11 -17 -4 96 -97 0
11 -17 -4 -96 98 0
11 -17 -4 -96 -98 0
5 -10 9 99 100 0
5 -10 9 99 -100 0
5 -10 9 -99 101 0
5 -10 9 -99 -101 0
3 -16 6 102 103 0
3 -16 6 102 -103 0
3 -16 6 -102 104 0
3 -16 6 -102 -104 0
12 -16 4 105 106 0
12 -16 4 105 -106 0
12 -16 4 -105 107 0
12 -16 4 -105 -107 0
-19 11 -3 108 109 0
-19 11 -3 108 -109 0
-19 11 -3 -108 110 0
-19 11 -3 -108 -110 0
1 -20 16 111 112 0
1 -20 16 111 -112 0
1 -20 16 -111 113 0
1 -20 16 -111 -113 0
12 1 17 114 115 0
12 1 17 114 -115 0
12 1 17 -114 116 0
12 1 17 -114 -116 0
4 -9 5 117 118 0
4 -9 5 117 -118 0
4 -9 5 -117 119 0
4 -9 5 -117 -119 0
-16 6 -19 120 121 0
-16 6 -19 120 -121 0
-16 6 -19 -120 122 0
-16 6 -19 -120 -122 0
-20 5 -3 123 124 0
-20 5 -3 123 -124 0
-20 5 -3 -123 125 0
-20 5 -3 -123 -125 0
16 8 -10 126 127 0
16 8 -10 126 -127 0
16 8 -10 -126 128 0
16 8 -10 -126 -128 0
-15 4 14 129 130 0
-15 4 14 129 -130 0
-15 4 14 -129 131 0
-15 4 14 -129 -131 0
-18 6 8 132 133 0
-18 6 8 132 -133 0
-18 6 8 -132 134 0
-18 6 8 -132 -134 0
18 9 3 135 136 0
18 9 3 135 -136 0
18 9 3 -135 137 0
18 9 3 -135 -137 0
-8 -5 -2 138 139 0
-8 -5 -2 138 -139 0
-8 -5 -2 -138 140 0
-8 -5 -2 -138 -140 0
3 8 -20 141 142 0
3 8 -20 141 -142 0
3 8 -20 -141 143 0
3 8 -20 -141 -143 0
-10 -18 8 144 145 0
-10 -18 8 144 -145 0
-10 -18 8 -144 146 0
-10 -18 8 -144 -146 0
17 -5 -13 147 148 0
17 -5 -13 147 -148 0
17 -5 -13 -147 149 0
17 -5 -13 -147 -149 0
6 4 19 150 151 0
6 4 19 150 -151 0
6 4 19 -150 152 0
6 4 19 -150 -152 0
-16 14 5 153 154 0
-16 14 5 153 -154 0
-16 14 5 -153 155 0
-16 14 5 -153 -155 0
-15 -12 -10 156 157 0
-15 -12 -10 156 -157 0
-15 -12 -10 -156 158 0
-15 -12 -10 -156 -158 0
7 11 15 159 160 0
7 11 15 159 -160 0
7 11 15 -159 161 0
7 11 15 -159 -161 0
-4 15 13 162 163 0
-4 15 13 162 -163 0
-4 15 13 -162 164 0
-4 15 13 -162 -164 0
18 -13 7 165 166 0
18 -13 7 165 -166 0
18 -13 7 -165 167 0
18 -13 7 -165 -167 0
2 -12 -19 168 169 0
2 -12 -19 168 -169 0
2 -12 -19 -168 170 0
2 -12 -19 -168 -170 0
12 -5 -6 171 172 0
12 -5 -6 171 -172 0
12 -5 -6 -171 173 0
12 -5 -6 -171 -173 0
16 -9 8 174 175 0
16 -9 8 174 -175 0
16 -9 8 -174 176 0
16 -9 8 -174 -176 0
-5 14 1 177 178 0
-5 14 1 177 -178 0
-5 14 1 -177 179 0
-5 14 1 -177 -179 0
-14 -15 17 180 181 0
-14 -15 17 180 -181 0
-14 -15 17 -180 182 0
-14 -15 17 -180 -182 0
-1 5 15 183 184 0
-1 5 15 183 -184 0
-1 5 15 -183 185 0
-1 5 15 -183 -185 0
-11 16 -14 186 187 0
-11 16 -14 186 -187 0
-11 16 -14 -186 188 0
-11 16 -14 -186 -188 0
-10 20 -1 189 190 0
-10 20 -1 189 -190 0
-10 20 -1 -189 191 0
-10 20 -1 -189 -191 0
4 7 -13 192 193 0
4 7 -13 192 -193 0
4 7 -13 -192 194 0
4 7 -13 -192 -194 0
14 -17 10 195 196 0
14 -17 10 195 -196 0
14 -17 10 -195 197 0
14 -17 10 -195 -197 0
13 -16 -7 198 199 0
13 -16 -7 198 -199 0
13 -16 -7 -198 200 0
13 -16 -7 -198 -200 0
17 6 -7 201 202 0
17 6 -7 201 -202 0
17 6 -7 -201 203 0
17 6 -7 -201 -203 0
-2 11 -8 204 205 0
-2 11 -8 204 -205 0
-2 11 -8 -204 206 0
-2 11 -8 -204 -206 0
19 13 16 207 208 0
19 13 16 207 -208 0
19 13 16 -207 209 0
19 13 16 -207 -209 0
-17 -18 13 210 211 0
-17 -18 13 210 -211 0
-17 -18 13 -210 212 0
-17 -18 13 -210 -212 0
-6 -19 3 213 214 0
-6 -19 3 213 -214 0
-6 -19 3 -213 215 0
-6 -19 3 -213 -215 0
-4 5 -10 216 217 0
-4 5 -10 216 -217 0
-4 5 -10 -216 218 0
-4 5 -10 -216 -218 0
5 -8 -17 219 220 0
5 -8 -17 219 -220 0
5 -8 -17 -219 221 0
5 -8 -17 -219 -221 0
1 14 -15 222 223 0
1 14 -15 222 -223 0
1 14 -15 -222 224 0
1 14 -15 -222 -224 0
6 -20 -4 225 226 0
6 -20 -4 225 -226 0
6 -20 -4 -225 227 0
6 -20 -4 -225 -227 0
11 9 14 228 229 0
11 9 14 228 -229 0
11 9 14 -228 230 0
11 9 14 -228 -230 0
11 -9 10 231 232 0
11 -9 10 231 -232 0
11 -9 10 -231 233 0
11 -9 10 -231 -233 0
9 2 -18 234 235 0
9 2 -18 234 -235 0
9 2 -18 -234 236 0
9 2 -18 -234 -236 0
-19 -10 -9 237 238 0
-19 -10 -9 237 -238 0
-19 -10 -9 -237 239 0
-19 -10 -9 -237 -239 0
5 3 11 240 241 0
5 3 11 240 -241 0
5 3 11 -240 242 0
5 3 11 -240 -242 0
19 -10 -13 243 244 0
19 -10 -13 243 -244 0
19 -10 -13 -243 245 0
19 -10 -13 -243 -245 0
16 -2 -3 246 247 0
16 -2 -3 246 -247 0
16 -2 -3 -246 248 0
16 -2 -3 -246 -248 0
-9 19 10 249 250 0
-9 19 10 249 -250 0
-9 19 10 -249 251 0
-9 19 10 -249 -251 0
12 -18 14 252 253 0
12 -18 14 252 -253 0
12 -18 14 -252 254 0
12 -18 14 -252 -254 0
-10 18 -15 255 256 0
-10 18 -15 255 -256 0
-10 18 -15 -255 257 0
-10 18 -15 -255 -257 0
16 4 -6 258 259 0
16 4 -6 258 -259 0
16 4 -6 -258 260 0
16 4 -6 -258 -260 0
1 5 -2 261 262 0
1 5 -2 261 -262 0
1 5 -2 -261 263 0
1 5 -2 -261 -263 0
17 14 16 264 265 0
17 14 16 264 -265 0
17 14 16 -264 266 0
17 14 16 -264 -266 0
11 19 -1 267 268 0
11 19 -1 267 -268 0
11 19 -1 -267 269 0
11 19 -1 -267 -269 0
9 13 -14 270 271 0
9 13 -14 270 -271 0
9 13 -14 -270 272 0
9 13 -14 -270 -272 0
19 -6 -3 273 274 0
19 -6 -3 273 -274 0
19 -6 -3 -273 275 0
19 -6 -3 -273 -275 0
4 -15 17 276 277 0
4 -15 17 276 -277 0
4 -15 17 -276 278 0
4 -15 17 -276 -278 0
-2 15 16 279 280 0
-2 15 16 279 -280 0
-2 15 16 -279 281 0
-2 15 16 -279 -281 0
1 -12 2 282 283 0
1 -12 2 282 -283 0
1 -12 2 -282 284 0
1 -12 2 -282 -284 0
18 4 -12 285 286 0
18 4 -12 285 -286 0
18 4 -12 -285 287 0
18 4 -12 -285 -287 0
6 14 -10 288 289 0
6 14 -10 288 -289 0
6 14 -10 -288 290 0
6 14 -10 -288 -290 0
3 2 -18 291 292 0
3 2 -18 291 -292 0
3 2 -18 -291 293 0
3 2 -18 -291 -293 0
294 295 297 301 309 0
294 295 297 301 -309 0
294 295 297 -301 310 0
294 295 297 -301 -310 0
294 295 -297 302 311 0
294 295 -297 302 -311 0
294 295 -297 -302 312 0
294 295 -297 -302 -312 0
294 -295 298 303 313 0
294 -295 298 303 -313 0
294 -295 298 -303 314 0
294 -295 298 -303 -314 0
294 -295 -298 304 315 0
294 -295 -298 304 -315 0
294 -295 -298 -304 316 0
294 -295 -298 -304 -316 0
-294 296 299 305 317 0
-294 296 299 305 -317 0
-294 296 299 -305 318 0
-294 296 299 -305 -318 0
-294 296 -299 306 319 0
-294 296 -299 306 -319 0
-294 296 -299 -306 320 0
-294 296 -299 -306 -320 0
-294 -296 300 307 321 0
-294 -296 300 307 -321 0
-294 -296 300 -307 322 0
-294 -296 300 -307 -322 0
-294 -296 -300 308 323 0
-294 -296 -300 308 -323 0
-294 -296 -300 -308 324 0
-294 -296 -300 -308 -324 0
325 326 328 332 340 0
325 326 328 332 -340 0
325 326 328 -332 341 0
325 326 328 -332 -341 0
325 326 -328 333 342 0
325 326 -328 333 -342 0
325 326 -328 -333 343 0
325 326 -328 -333 -343 0
325 -326 329 334 344 0
325 -326 329 334 -344 0
325 -326 329 -334 345 0
325 -326 329 -334 -345 0
325 -326 -329 335 346 0
325 -326 -329 335 -346 0
325 -326 -329 -335 347 0
325 -326 -329 -335 -347 0
-325 327 330 336 348 0
-325 327 330 336 -348 0
-325 327 330 -336 349 0
-325 327 330 -336 -349 0
-325 327 -330 337 350 0
-325 327 -330 337 -350 0
-325 327 -330 -337 351 0
-325 327 -330 -337 -351 0
-325 -327 331 338 352 0
-325 -327 331 338 -352 0
-325 -327 331 -338 353 0
-325 -327 331 -338 -353 0
-325 -327 -331 339 354 0
-325 -327 -331 339 -354 0
-325 -327 -331 -339 355 0
-325 -327 -331 -339 -355 0
356 357 359 363 371 0
356 357 359 363 -371 0
356 357 359 -363 372 0
356 357 359 -363 -372 0
356 357 -359 364 373 0
356 357 -359 364 -373 0
356 357 -359 -364 374 0
356 357 -359 -364 -374 0
356 -357 360 365 375 0
356 -357 360 365 -375 0
356 -357 360 -365 376 0
356 -357 360 -365 -376 0
356 -357 -360 366 377 0
356 -357 -360 366 -377 0
356 -357 -360 -366 378 0
356 -357 -360 -366 -378 0
-356 358 361 367 379 0
-356 358 361 367 -379 0
-356 358 361 -367 380 0
-356 358 361 -367 -380 0
-356 358 -361 368 381 0
-356 358 -361 368 -381 0
-356 358 -361 -368 382 0
-356 358 -361 -368 -382 0
-356 -358 362 369 383 0
-356 -358 362 369 -383 0
-356 -358 362 -369 384 0
-356 -358 362 -369 -384 0
-356 -358 -362 370 385 0
-356 -358 -362 370 -385 0
-356 -358 -362 -370 386 0
-356 -358 -362 -370 -386 0

